benchmarks/VRPTW/TSPTW/solution/n200w20.003.txt.solution
1 32 179 39 186 174 49 98 83 84 41 188 156 161 195 166 30 124 63 121 107 55 178 102 90 144 48 158 192 170 76 62 72 197 92 100 106 196 163 52 159 146 185 22 7 198 17 119 73 190 99 69 140 103 23 116 177 88 28 59 57 154 50 97 60 109 110 15 118 131 153 10 56 133 167 13 9 187 89 141 113 137 71 115 96 70 78 74 132 184 14 93 136 51 25 111 8 120 101 112 24 77 85 183 105 173 168 58 180 64 200 42 193 157 128 43 54 91 108 16 130 114 172 37 139 155 145 175 122 19 2 129 38 171 12 27 82 135 40 151 44 152 36 127 47 182 104 53 6 45 160 123 194 3 79 87 68 35 149 148 80 5 191 18 126 75 31 147 143 134 150 66 169 65 176 21 61 95 138 162 189 86 26 33 11 181 142 94 34 199 29 164 4 46 81 67 165 117 201 20 125 
1050
